Cn=500;
Ct=12;
Ch=150;

diasRegimen=2;
pctRegimen=80;

Nmax=700;
Hmax=100;
Tmax=50;

s=3;
n=20;

dsn=[|200,200,200|200,200,200|200,200,200|200,200,200|200,200,200|
      200,200,200|200,200,200|200,200,200|200,200,200|200,200,200|
      200,200,200|200,200,200|200,200,200|200,200,200|200,200,200|
      200,200,200|200,200,200|200,200,200|200,200,200|200,200,200|]